unsat
(:binary-propagations  5
 :conflicts            1
 :final-checks         1
 :max-generation       1
 :max-memory           22.88
 :memory               20.74
 :mk-bool-var          215
 :mk-clause            81
 :mk-clause-binary     198
 :num-allocs           3818959
 :num-checks           1
 :propagations         5
 :quant-instantiations 46
 :restarts             1
 :rlimit-count         26567
 :time                 0.01)
